Route #1: 35 11 18 71
Route #2: 5 3 4 9 7 8 10 6 12 17 16 13 1 15 2 19 14 33
Route #3: 36 31 32 34 60 61 58 59 63 62 64 65 66 67 69 37 38 40 68 39 57 56 41 55 54
Route #4: 23 26 24 25 49 70 51 50 47 48 52 45 53 46 44 43 42 27 28 22 21 30 29 20
Cost 244